(set-logic QF_S)
(set-option :strings-exp true)
(set-option :produce-models true)
(declare-fun sigmaStar_0 () String)
(declare-fun literal_3 () String)
(declare-fun x_2 () String)
(declare-fun literal_1 () String)
(declare-fun x_4 () String)
(declare-fun literal_5 () String)
(declare-fun x_6 () String)
(assert (= literal_3 "\x6c\x6f\x63\x61\x6c\x65\x2f"))
(assert (= literal_1 "\x45\x6e\x67\x6c\x69\x73\x68"))
(assert (or (= x_2 sigmaStar_0) (= x_2 literal_1)))
(assert (= x_4 (str.++ literal_3 x_2)))
(assert (= literal_5 "\x2f\x73\x65\x74\x75\x70\x2e\x70\x68\x70"))
(assert (= x_6 (str.++ x_4 literal_5)))
(assert (str.in.re x_6 (re.++ (re.* re.allchar) (re.++ (str.to.re "\x2f\x65\x76\x69\x6c") (re.* re.allchar)))))
(check-sat)
(get-model)
